(set-logic QF_SLIA)
(set-option :produce-models true)
(declare-const X String)
; /Referer\u{3a}[^\n]*fla\.php\?wq=[a-f0-9]+\u{0d}\u{0a}/H
(assert (str.in_re X (re.++ (str.to_re "/Referer:") (re.* (re.comp (str.to_re "\u{0a}"))) (str.to_re "fla.php?wq=") (re.+ (re.union (re.range "a" "f") (re.range "0" "9"))) (str.to_re "\u{0d}\u{0a}/H\u{0a}"))))
; /filename=[^\n]*\u{2e}hpj/i
(assert (not (str.in_re X (re.++ (str.to_re "/filename=") (re.* (re.comp (str.to_re "\u{0a}"))) (str.to_re ".hpj/i\u{0a}")))))
; Host\u{3a}\dOVNUsertooffers\x2Ebullseye-network\x2Ecom
(assert (str.in_re X (re.++ (str.to_re "Host:") (re.range "0" "9") (str.to_re "OVNUsertooffers.bullseye-network.com\u{0a}"))))
; <[ \t]*[iI][mM][gG][ \t]*[sS][rR][cC][ \t]*=[ \t]*['\"]([^'\"]+)
(assert (str.in_re X (re.++ (str.to_re "<") (re.* (re.union (str.to_re " ") (str.to_re "\u{09}"))) (re.union (str.to_re "i") (str.to_re "I")) (re.union (str.to_re "m") (str.to_re "M")) (re.union (str.to_re "g") (str.to_re "G")) (re.* (re.union (str.to_re " ") (str.to_re "\u{09}"))) (re.union (str.to_re "s") (str.to_re "S")) (re.union (str.to_re "r") (str.to_re "R")) (re.union (str.to_re "c") (str.to_re "C")) (re.* (re.union (str.to_re " ") (str.to_re "\u{09}"))) (str.to_re "=") (re.* (re.union (str.to_re " ") (str.to_re "\u{09}"))) (re.union (str.to_re "'") (str.to_re "\u{22}")) (re.+ (re.union (str.to_re "'") (str.to_re "\u{22}"))) (str.to_re "\u{0a}"))))
; [\\""=/>](25[0-4]|2[0-4][0-9]|1\d{2}|\d{2})\.((25[0-4]|2[0-4][0-9]|1\d{2}|\d{1,2})\.){2}(25[0-4]|2[0-4][0-9]|1\d{2}|\d{2}|[1-9])\b[\\""=:;,/<]
(assert (not (str.in_re X (re.++ (re.union (str.to_re "\u{5c}") (str.to_re "\u{22}") (str.to_re "=") (str.to_re "/") (str.to_re ">")) (re.union (re.++ (str.to_re "25") (re.range "0" "4")) (re.++ (str.to_re "2") (re.range "0" "4") (re.range "0" "9")) (re.++ (str.to_re "1") ((_ re.loop 2 2) (re.range "0" "9"))) ((_ re.loop 2 2) (re.range "0" "9"))) (str.to_re ".") ((_ re.loop 2 2) (re.++ (re.union (re.++ (str.to_re "25") (re.range "0" "4")) (re.++ (str.to_re "2") (re.range "0" "4") (re.range "0" "9")) (re.++ (str.to_re "1") ((_ re.loop 2 2) (re.range "0" "9"))) ((_ re.loop 1 2) (re.range "0" "9"))) (str.to_re "."))) (re.union (re.++ (str.to_re "25") (re.range "0" "4")) (re.++ (str.to_re "2") (re.range "0" "4") (re.range "0" "9")) (re.++ (str.to_re "1") ((_ re.loop 2 2) (re.range "0" "9"))) ((_ re.loop 2 2) (re.range "0" "9")) (re.range "1" "9")) (re.union (str.to_re "\u{5c}") (str.to_re "\u{22}") (str.to_re "=") (str.to_re ":") (str.to_re ";") (str.to_re ",") (str.to_re "/") (str.to_re "<")) (str.to_re "\u{0a}")))))
(check-sat)
